Problem:    
Rows:       260
Columns:    89 (72 integer, 72 binary)
Non-zeros:  936
Status:     INTEGER OPTIMAL
Objective:  value = 5.949177 (MINimum)

   No.   Row name        Activity     Lower bound   Upper bound
------ ------------    ------------- ------------- -------------
     1 r.5                   1029.95             0               
     2 r.6                  -1022.94      -1023.01               
     3 r.7                   5.94918             0               
     4 r.8                  0.071667      -1015.98               
     5 r.9                   1029.95             0               
     6 r.10                 -1021.46      -1023.04               
     7 r.11                  5.94918             0               
     8 r.12                 0.071667      -1016.26               
     9 r.13                  1029.95             0               
    10 r.14                 -1022.85      -1023.91               
    11 r.15                  5.94918             0               
    12 r.16                  2.54159      -1022.79               
    13 r.17                  5.94918             0               
    14 r.18                 0.071667      -1023.88               
    15 r.19                  1029.95             0               
    16 r.20                 -1022.07      -1022.14               
    17 r.21                  1029.95             0               
    18 r.22                 -1022.42      -1023.57               
    19 r.23                  5.94918             0               
    20 r.24                  2.54159      -1020.14               
    21 r.25                  1029.95             0               
    22 r.26                 -1023.93      -1023.93               
    23 r.27                  5.94918             0               
    24 r.28                 0.071667      -1022.99               
    25 r.29                  1029.95             0               
    26 r.30                 -1018.05      -1022.22               
    27 r.31                  5.94918             0               
    28 r.32                  -1017.3      -1020.63               
    29 r.33                  1029.95             0               
    30 r.34                 -1019.83      -1022.37               
    31 r.35                  5.94918             0               
    32 r.36                  5.94918      -1020.91               
    33 r.37                        1             1             = 
    34 r.38                        1             1             = 
    35 r.39                        1             1             = 
    36 r.40                        1             1             = 
    37 r.41                        1             1             = 
    38 r.42                        1             1             = 
    39 r.43                        1             1             = 
    40 r.44                        1             1             = 
    41 r.45                        2             2               
    42 r.46                       -2         -1025               
    43 r.47                 -1022.52      -1023.04               
    44 r.48                     1024             2               
    45 r.49                    -1024         -1025               
    46 r.50                     2048      -1016.26               
    47 r.51                        2             2               
    48 r.52                       -2         -1025               
    49 r.53                 -1023.91      -1023.91               
    50 r.54                     1024             2               
    51 r.55                    -1024         -1025               
    52 r.56                  2050.47      -1022.79               
    53 r.57                     1025             2               
    54 r.58                    -1025         -1025               
    55 r.59                  2047.01      -1023.88               
    56 r.60                     1025             2               
    57 r.61                    -1025         -1025               
    58 r.62                  2049.86      -1022.14               
    59 r.63                        2             2               
    60 r.64                       -2         -1025               
    61 r.65                 -1023.48      -1023.57               
    62 r.66                     1024             2               
    63 r.67                    -1024         -1025               
    64 r.68                  2050.47      -1020.14               
    65 r.69                        0             0               
    66 r.70                        0             0               
    67 r.71                        0             0               
    68 r.72                        0             0               
    69 r.73                 -1019.11      -1022.22               
    70 r.74                 -1018.36      -1020.63               
    71 r.75                 -1018.12      -1022.22               
    72 r.76                 -1017.37      -1020.63               
    73 r.77                 -1020.89      -1022.37               
    74 r.78                  4.88753      -1020.91               
    75 r.79                  -1019.9      -1022.37               
    76 r.80                  5.87751      -1020.91               
    77 r.81                        2             2               
    78 r.82                       -2         -1025               
    79 r.83                  1022.52      0.989978               
    80 r.84                     1024             2               
    81 r.85                    -1024         -1025               
    82 r.86                     2048       8.01657               
    83 r.87                        2             2               
    84 r.88                       -2         -1025               
    85 r.89                 -1.38915      -1023.91               
    86 r.90                     1024             2               
    87 r.91                    -1024         -1025               
    88 r.92                  2050.47      -1022.79               
    89 r.93                     1025             2               
    90 r.94                    -1025         -1025               
    91 r.95                  2045.53      -1023.88               
    92 r.96                     1025             2               
    93 r.97                    -1025         -1025               
    94 r.98                  2049.86      -1022.14               
    95 r.99                        2             2               
    96 r.100                      -2         -1025               
    97 r.101               -0.958211      -1023.57               
    98 r.102                    1024             2               
    99 r.103                   -1024         -1025               
   100 r.104                 2050.47      -1020.14               
   101 r.105                 1.51171             0               
   102 r.106                       0             0               
   103 r.107                 1.51171             0               
   104 r.108                       0             0               
   105 r.109                -1020.59      -1022.22               
   106 r.110                -1019.84      -1020.63               
   107 r.111                -1018.12      -1022.22               
   108 r.112                -1017.37      -1020.63               
   109 r.113                       2             2               
   110 r.114                      -2         -1025               
   111 r.115                -1022.37      -1022.37               
   112 r.116                    1024             2               
   113 r.117                   -1024         -1025               
   114 r.118                 2053.88      -1020.91               
   115 r.119                       2             2               
   116 r.120                      -2         -1025               
   117 r.121                 1023.91      0.989978               
   118 r.122                    1024             2               
   119 r.123                   -1024         -1025               
   120 r.124                 2045.53       8.01657               
   121 r.125                       2             2               
   122 r.126                      -2         -1025               
   123 r.127                 1.38915      0.958211               
   124 r.128                    1024             2               
   125 r.129                   -1024         -1025               
   126 r.130                 2045.53       7.74197               
   127 r.131                    1025             2               
   128 r.132                   -1025         -1025               
   129 r.133                 2046.92      -1023.88               
   130 r.134                    1025             2               
   131 r.135                   -1025         -1025               
   132 r.136                 2047.39      -1022.14               
   133 r.137                       2             2               
   134 r.138                      -2         -1025               
   135 r.139                -1023.57      -1023.57               
   136 r.140                    1024             2               
   137 r.141                   -1024         -1025               
   138 r.142                    2048      -1020.14               
   139 r.143                0.989977             0               
   140 r.144                 2.46992             0               
   141 r.145                0.989977             0               
   142 r.146                 2.46992             0               
   143 r.147                 -1019.2      -1022.22               
   144 r.148                -1018.45      -1020.63               
   145 r.149                -1020.59      -1022.22               
   146 r.150                -1019.84      -1020.63               
   147 r.151                -1020.98      -1022.37               
   148 r.152                 4.79674      -1020.91               
   149 r.153                -1022.37      -1022.37               
   150 r.154                 3.40759      -1020.91               
   151 r.155                    1025             2               
   152 r.156                   -1025         -1025               
   153 r.157                 2050.44      0.989978               
   154 r.158                    1025             2               
   155 r.159                   -1025         -1025               
   156 r.160                 2044.74       8.01657               
   157 r.161                    1025             2               
   158 r.162                   -1025         -1025               
   159 r.163                 2051.92      0.958211               
   160 r.164                    1025             2               
   161 r.165                   -1025         -1025               
   162 r.166                 2044.74       7.74197               
   163 r.167                    1025             2               
   164 r.168                   -1025         -1025               
   165 r.169                 2050.53      0.090789               
   166 r.170                    1025             2               
   167 r.171                   -1025         -1025               
   168 r.172                 2047.21       1.21343               
   169 r.173                    1025             2               
   170 r.174                   -1025         -1025               
   171 r.175                 2050.96      -1023.57               
   172 r.176                    1025             2               
   173 r.177                   -1025         -1025               
   174 r.178                 2047.21      -1020.14               
   175 r.179                       0             0               
   176 r.180                       0             0               
   177 r.181                       0             0               
   178 r.182                       0             0               
   179 r.183                -1016.67      -1022.22               
   180 r.184                -1015.92      -1020.63               
   181 r.185                -1021.38      -1022.22               
   182 r.186                -1020.63      -1020.63               
   183 r.187                    1025             2               
   184 r.188                   -1025         -1025               
   185 r.189                 2053.55      -1022.37               
   186 r.190                    1025             2               
   187 r.191                   -1025         -1025               
   188 r.192                 2050.62      -1020.91               
   189 r.193                       2             2               
   190 r.194                      -2         -1025               
   191 r.195                 1023.48      0.989978               
   192 r.196                    1024             2               
   193 r.197                   -1024         -1025               
   194 r.198                 2045.53       8.01657               
   195 r.199                       2             2               
   196 r.200                      -2         -1025               
   197 r.201                0.958211      0.958211               
   198 r.202                    1024             2               
   199 r.203                   -1024         -1025               
   200 r.204                 2045.53       7.74197               
   201 r.205                       2             2               
   202 r.206                      -2         -1025               
   203 r.207                 1023.57      0.090789               
   204 r.208                    1024             2               
   205 r.209                   -1024         -1025               
   206 r.210                    2048       1.21343               
   207 r.211                    1025             2               
   208 r.212                   -1025         -1025               
   209 r.213                 2046.49      0.119122               
   210 r.214                    1025             2               
   211 r.215                   -1025         -1025               
   212 r.216                 2047.39       1.86016               
   213 r.217                 1.08076             0               
   214 r.218                 2.46992             0               
   215 r.219                 1.08076             0               
   216 r.220                 2.46992             0               
   217 r.221                       2             2               
   218 r.222                      -2         -1025               
   219 r.223                -1019.63      -1022.22               
   220 r.224                    1024             2               
   221 r.225                   -1024         -1025               
   222 r.226                 1028.16      -1020.63               
   223 r.227                -1021.41      -1022.37               
   224 r.228                  4.3658      -1020.91               
   225 r.229                -1022.37      -1022.37               
   226 r.230                 3.40759      -1020.91               
   227 r.231                -1018.12      -1022.22               
   228 r.232                -1017.37      -1020.63               
   229 r.233                -1018.12      -1022.22               
   230 r.234                -1017.37      -1020.63               
   231 r.235                       2             2               
   232 r.236                      -2         -1025               
   233 r.237                 1019.63      0.430944               
   234 r.238                    1024             2               
   235 r.239                   -1024         -1025               
   236 r.240                 3067.84       3.85628               
   237 r.241                       2             2               
   238 r.242                      -2         -1025               
   239 r.243                 -1.7768      -1022.37               
   240 r.244                    1024             2               
   241 r.245                   -1024         -1025               
   242 r.246                 3071.25      -1020.91               
   243 r.247                       2             2               
   244 r.248                      -2         -1025               
   245 r.249                 1022.37      0.958211               
   246 r.250                    1024             2               
   247 r.251                   -1024         -1025               
   248 r.252                 2042.12       7.74197               
   249 r.253                    1025             2               
   250 r.254                   -1025         -1025               
   251 r.255                  2043.9      0.119122               
   252 r.256                    1025             2               
   253 r.257                   -1025         -1025               
   254 r.258                 2043.98       1.86016               
   255 r.259                       2             2               
   256 r.260                      -2         -1025               
   257 r.261                  1.7768        1.7768               
   258 r.262                    1024             2               
   259 r.263                   -1024         -1025               
   260 r.264                 1024.75       3.36681               

   No. Column name       Activity     Lower bound   Upper bound
------ ------------    ------------- ------------- -------------
     1 tt                    5.94918             0               
     2 s_1_1        *              1             0             1 
     3 t_1_1                 4.88753             0               
     4 s_1_7        *              1             0             1 
     5 s_2_1        *              0             0             1 
     6 t_2_1                 5.87751             0               
     7 s_2_7        *              0             0             1 
     8 s_1_2        *              1             0             1 
     9 t_1_2                 3.40759             0               
    10 s_2_2        *              0             0             1 
    11 t_2_2                 5.87751             0               
    12 s_1_3        *              1             0             1 
    13 t_1_3                 4.79674             0               
    14 s_2_3        *              0             0             1 
    15 t_2_3                 3.40759             0               
    16 s_1_4        *              0             0             1 
    17 t_1_4                 7.33016             0               
    18 s_2_4        *              1             0             1 
    19 t_2_4                 2.61628             0               
    20 s_1_5        *              1             0             1 
    21 t_1_5                  4.3658             0               
    22 s_1_8        *              1             0             1 
    23 s_2_5        *              0             0             1 
    24 t_2_5                 3.40759             0               
    25 s_2_8        *              0             0             1 
    26 s_1_6        *              1             0             1 
    27 t_1_6                 5.87751             0               
    28 s_2_6        *              0             0             1 
    29 t_2_6                 5.87751             0               
    30 t_1_7                       0             0               
    31 t_2_7                 1023.25             0               
    32 t_1_8                  1.7768             0               
    33 t_2_8                       0             0               
    34 r_1_1_2      *              0             0             1 
    35 u_1_1_2      *              1             0             1 
    36 r_2_1_2      *              1             0             1 
    37 u_2_1_2      *              0             0             1 
    38 r_1_1_3      *              0             0             1 
    39 u_1_1_3      *              1             0             1 
    40 r_2_1_3      *              1             0             1 
    41 u_2_1_3      *              0             0             1 
    42 r_1_1_4      *              1             0             1 
    43 u_1_1_4      *              0             0             1 
    44 r_2_1_4      *              1             0             1 
    45 u_2_1_4      *              0             0             1 
    46 r_1_1_5      *              0             0             1 
    47 u_1_1_5      *              1             0             1 
    48 r_2_1_5      *              1             0             1 
    49 u_2_1_5      *              0             0             1 
    50 r_1_2_3      *              0             0             1 
    51 u_1_2_3      *              0             0             1 
    52 r_2_2_3      *              1             0             1 
    53 u_2_2_3      *              0             0             1 
    54 r_1_2_4      *              1             0             1 
    55 u_1_2_4      *              0             0             1 
    56 r_2_2_4      *              1             0             1 
    57 u_2_2_4      *              0             0             1 
    58 r_1_2_5      *              0             0             1 
    59 u_1_2_5      *              0             0             1 
    60 r_2_2_5      *              1             0             1 
    61 u_2_2_5      *              0             0             1 
    62 r_1_2_8      *              0             0             1 
    63 u_1_2_8      *              1             0             1 
    64 r_2_2_8      *              1             0             1 
    65 u_2_2_8      *              0             0             1 
    66 r_1_3_4      *              1             0             1 
    67 u_1_3_4      *              0             0             1 
    68 r_2_3_4      *              1             0             1 
    69 u_2_3_4      *              0             0             1 
    70 r_1_3_5      *              0             0             1 
    71 u_1_3_5      *              1             0             1 
    72 r_2_3_5      *              1             0             1 
    73 u_2_3_5      *              0             0             1 
    74 r_1_4_5      *              1             0             1 
    75 u_1_4_5      *              0             0             1 
    76 r_2_4_5      *              1             0             1 
    77 u_2_4_5      *              0             0             1 
    78 r_1_4_8      *              1             0             1 
    79 u_1_4_8      *              0             0             1 
    80 r_2_4_8      *              1             0             1 
    81 u_2_4_8      *              0             0             1 
    82 r_1_5_7      *              0             0             1 
    83 u_1_5_7      *              1             0             1 
    84 r_2_5_7      *              1             0             1 
    85 u_2_5_7      *              0             0             1 
    86 r_1_7_8      *              0             0             1 
    87 u_1_7_8      *              0             0             1 
    88 r_2_7_8      *              1             0             1 
    89 u_2_7_8      *              0             0             1 

Integer feasibility conditions:

KKT.PE: max.abs.err = 4.55e-13 on row 52
        max.rel.err = 1.11e-16 on row 120
        High quality

KKT.PB: max.abs.err = 1.14e-13 on row 135
        max.rel.err = 1.11e-16 on row 135
        High quality

End of output
